# ================= Initialization =================
units           metal
dimension       3
boundary        p p p
atom_style      atomic

package         kokkos neigh full comm device
newton          off

# Kokkos full neighbor list requires newton off.
read_data       ../../model.data
mass    1 238.02891   # U

# ================= NEP potential =================
pair_style      matpl/nep/kk ../../nep.txt
pair_coeff      * * U

neighbor        2.0 bin
neigh_modify    delay 0 every 1 check yes

# ================= MD settings =================
timestep        0.001      # units metal: 0.001 ps = 1 fs
variable        T equal 300.0

velocity        all create ${T} 12345 mom yes rot yes dist gaussian

# ================= NPT =================
fix             1 all npt/kk temp ${T} ${T}  0.1 aniso 0.0 0.0 1.0

compute    allPe   all   pe
compute    myVirial all pressure NULL virial
variable   N_total equal count(all)
variable   pe_peratom equal c_allPe/v_N_total
variable   W_xx  equal c_myVirial[1]/v_N_total
variable   W_yy  equal c_myVirial[2]/v_N_total
variable   W_zz  equal c_myVirial[3]/v_N_total
variable   W_xy  equal c_myVirial[4]/v_N_total
variable   W_xz  equal c_myVirial[5]/v_N_total
variable   W_yz  equal c_myVirial[6]/v_N_total

# ================= Output =================
thermo          1
thermo_style    custom step temp v_pe_peratom v_W_xx v_W_yy v_W_zz v_W_xy v_W_xz v_W_yz

dump            1 all custom 1 lammps.dump id type x y z fx fy fz vx vy vz
dump_modify     1 sort id


# ================= Run =================
rerun           ../../ref_results/NPT/lammps.dump  dump x y z  vx vy vz
